sat
(model 
  (define-fun p ((x!0 Int) (x!1 Int)) Bool
    (ite (and (= x!0 1) (= x!1 1)) false
    (ite (and (= x!0 1) (= x!1 2)) false
    (ite (and (= x!0 1) (= x!1 3)) false
    (ite (and (= x!0 1) (= x!1 4)) false
    (ite (and (= x!0 1) (= x!1 5)) true
    (ite (and (= x!0 1) (= x!1 6)) false
    (ite (and (= x!0 1) (= x!1 7)) false
    (ite (and (= x!0 1) (= x!1 8)) false
    (ite (and (= x!0 2) (= x!1 1)) false
    (ite (and (= x!0 2) (= x!1 2)) true
    (ite (and (= x!0 2) (= x!1 3)) false
    (ite (and (= x!0 2) (= x!1 4)) false
    (ite (and (= x!0 2) (= x!1 5)) false
    (ite (and (= x!0 2) (= x!1 6)) false
    (ite (and (= x!0 2) (= x!1 7)) false
    (ite (and (= x!0 2) (= x!1 8)) false
    (ite (and (= x!0 3) (= x!1 1)) false
    (ite (and (= x!0 3) (= x!1 2)) false
    (ite (and (= x!0 3) (= x!1 3)) false
    (ite (and (= x!0 3) (= x!1 4)) true
    (ite (and (= x!0 3) (= x!1 5)) false
    (ite (and (= x!0 3) (= x!1 6)) false
    (ite (and (= x!0 3) (= x!1 7)) false
    (ite (and (= x!0 3) (= x!1 8)) false
    (ite (and (= x!0 4) (= x!1 1)) false
    (ite (and (= x!0 4) (= x!1 2)) false
    (ite (and (= x!0 4) (= x!1 3)) false
    (ite (and (= x!0 4) (= x!1 4)) false
    (ite (and (= x!0 4) (= x!1 5)) false
    (ite (and (= x!0 4) (= x!1 6)) false
    (ite (and (= x!0 4) (= x!1 7)) true
    (ite (and (= x!0 4) (= x!1 8)) false
    (ite (and (= x!0 5) (= x!1 1)) false
    (ite (and (= x!0 5) (= x!1 2)) false
    (ite (and (= x!0 5) (= x!1 3)) true
    (ite (and (= x!0 5) (= x!1 4)) false
    (ite (and (= x!0 5) (= x!1 5)) false
    (ite (and (= x!0 5) (= x!1 6)) false
    (ite (and (= x!0 5) (= x!1 7)) false
    (ite (and (= x!0 5) (= x!1 8)) false
    (ite (and (= x!0 6) (= x!1 1)) false
    (ite (and (= x!0 6) (= x!1 2)) false
    (ite (and (= x!0 6) (= x!1 3)) false
    (ite (and (= x!0 6) (= x!1 4)) false
    (ite (and (= x!0 6) (= x!1 5)) false
    (ite (and (= x!0 6) (= x!1 6)) false
    (ite (and (= x!0 6) (= x!1 7)) false
    (ite (and (= x!0 6) (= x!1 8)) true
    (ite (and (= x!0 7) (= x!1 1)) false
    (ite (and (= x!0 7) (= x!1 2)) false
    (ite (and (= x!0 7) (= x!1 3)) false
    (ite (and (= x!0 7) (= x!1 4)) false
    (ite (and (= x!0 7) (= x!1 5)) false
    (ite (and (= x!0 7) (= x!1 6)) true
    (ite (and (= x!0 7) (= x!1 7)) false
    (ite (and (= x!0 7) (= x!1 8)) false
    (ite (and (= x!0 8) (= x!1 1)) true
    (ite (and (= x!0 8) (= x!1 2)) false
    (ite (and (= x!0 8) (= x!1 3)) false
    (ite (and (= x!0 8) (= x!1 4)) false
    (ite (and (= x!0 8) (= x!1 5)) false
    (ite (and (= x!0 8) (= x!1 6)) false
    (ite (and (= x!0 8) (= x!1 7)) false
    (ite (and (= x!0 8) (= x!1 8)) false
      false)))))))))))))))))))))))))))))))))))))))))))))))))))))))))))))))))